83
6
0 6 7 8 9 14 15 16 17 18 21 22 24 27 28 29 31 32 34 36 38 40 42 43 46 47 48 50 51 52 53 58 59 61 62 64 65 66 67 68 72 75 76 79 82
1 8 10 17 19 21 24 28 29 31 32 33 34 35 36 38 42 43 44 47 49 51 52 53 56 58 59 61 63 64 66 67 69 71 72 73 77 79 81
2 6 7 8 9 11 13 15 16 22 24 25 28 29 32 34 36 39 40 41 44 46 47 50 53 55 57 62 63 64 65 66 67 68 69 71 76 78 80 81
3 6 8 10 11 12 15 16 19 20 21 26 31 32 33 34 37 40 43 44 45 46 53 56 57 58 59 61 62 63 68 72 74 75 76 77 79 81
4 7 11 13 23 29 30 31 32 33 54 55 57 59 63 65 66 69 70 75 77 80 81 82
5 22 29 37 38 44 46 47 50 51 60 71
